773977
773977
773977
773977
599241
599241
599241
599241
347547
347547
466459
466459
466459
466459
466459
466459
466459
466459
466459
466459
221346
221346
221346
221346
221346
221346
221346
221346
221346
385452
385452
385452
385452
385452
385452
385452
385452
385452
385452
195189
195189
195189
195189
332061
332061
332061
332061
332061
332061
332061
332061
332061
332061
332061
332061
332061
332061
332061
332061
332061
332061
332061
332061
332061
332061
332061
332061
332061
332061
332061
332061
332061
332061
332061
332061
332061
332061
332061
332061
332061
332061
332061
332061
332061
332061
332061
332061
332061
332061
332061
332061
332061
332061
332061
332061
332061
332061
332061
332061
332061
